
Gurobi 11.0.2 (win64) logging started Mon Jan 20 20:06:04 2025

Set parameter LogFile to value "log_MTTP1_targetS2_E2_Gurobi.log"
Set parameter Method to value 0

Gurobi 11.0.2 (win64) logging started Mon Jan 20 20:06:19 2025

Set parameter LogFile to value "log_MTTP1_targetS2_E2_Gurobi.log"
Gurobi Optimizer version 11.0.2 build v11.0.2rc0 (win64 - Windows 11.0 (22621.2))

CPU model: 12th Gen Intel(R) Core(TM) i7-12700, instruction set [SSE2|AVX|AVX2]
Thread count: 12 physical cores, 20 logical processors, using up to 20 threads

Optimize a model with 6184983 rows, 7275 columns and 12372639 nonzeros
Model fingerprint: 0xf8e81fc4
Variable types: 0 continuous, 7275 integer (7275 binary)
Coefficient statistics:
  Matrix range     [1e+00, 2e+00]
  Objective range  [1e+00, 1e+00]
  Bounds range     [0e+00, 0e+00]
  RHS range        [1e+00, 2e+00]
Found heuristic solution: objective -0.0000000
Presolve removed 6150162 rows and 0 columns
Presolve time: 1.38s
Presolved: 34821 rows, 7275 columns, 72315 nonzeros
Variable types: 0 continuous, 7275 integer (7275 binary)
Found heuristic solution: objective 326.0000000

Root relaxation: objective 3.407500e+02, 1421 iterations, 0.01 seconds (0.00 work units)

    Nodes    |    Current Node    |     Objective Bounds      |     Work
 Expl Unexpl |  Obj  Depth IntInf | Incumbent    BestBd   Gap | It/Node Time

     0     0  340.75000    0   24  326.00000  340.75000  4.52%     -    2s
H    0     0                     339.0000000  340.75000  0.52%     -    2s
H    0     0                     340.0000000  340.75000  0.22%     -    2s
     0     0  340.75000    0   24  340.00000  340.75000  0.22%     -    2s

Explored 1 nodes (1732 simplex iterations) in 2.67 seconds (2.53 work units)
Thread count was 20 (of 20 available processors)

Solution count 5: 340 339 326 ... -0

Optimal solution found (tolerance 1.00e-04)
Best objective 3.400000000000e+02, best bound 3.400000000000e+02, gap 0.0000%

User-callback calls 711, time in user-callback 0.00 sec

Gurobi 11.0.2 (win64) logging started Tue Jan 21 08:28:02 2025

Set parameter LogFile to value "log_MTTP1_targetS2_E2_Gurobi.log"
Set parameter Method to value 0

Gurobi 11.0.2 (win64) logging started Tue Jan 21 08:28:17 2025

Set parameter LogFile to value "log_MTTP1_targetS2_E2_Gurobi.log"
Gurobi Optimizer version 11.0.2 build v11.0.2rc0 (win64 - Windows 11.0 (22621.2))

CPU model: 12th Gen Intel(R) Core(TM) i7-12700, instruction set [SSE2|AVX|AVX2]
Thread count: 12 physical cores, 20 logical processors, using up to 20 threads

Optimize a model with 6184983 rows, 7275 columns and 12372639 nonzeros
Model fingerprint: 0xf8e81fc4
Variable types: 0 continuous, 7275 integer (7275 binary)
Coefficient statistics:
  Matrix range     [1e+00, 2e+00]
  Objective range  [1e+00, 1e+00]
  Bounds range     [0e+00, 0e+00]
  RHS range        [1e+00, 2e+00]
Found heuristic solution: objective -0.0000000
Presolve removed 6150162 rows and 0 columns
Presolve time: 1.35s
Presolved: 34821 rows, 7275 columns, 72315 nonzeros
Variable types: 0 continuous, 7275 integer (7275 binary)
Found heuristic solution: objective 326.0000000

Root relaxation: objective 3.407500e+02, 1421 iterations, 0.01 seconds (0.00 work units)

    Nodes    |    Current Node    |     Objective Bounds      |     Work
 Expl Unexpl |  Obj  Depth IntInf | Incumbent    BestBd   Gap | It/Node Time

     0     0  340.75000    0   24  326.00000  340.75000  4.52%     -    2s
H    0     0                     339.0000000  340.75000  0.52%     -    2s
H    0     0                     340.0000000  340.75000  0.22%     -    2s
     0     0  340.75000    0   24  340.00000  340.75000  0.22%     -    2s

Explored 1 nodes (1732 simplex iterations) in 2.68 seconds (2.53 work units)
Thread count was 20 (of 20 available processors)

Solution count 5: 340 339 326 ... -0

Optimal solution found (tolerance 1.00e-04)
Best objective 3.400000000000e+02, best bound 3.400000000000e+02, gap 0.0000%

User-callback calls 709, time in user-callback 0.00 sec
